letting maxWeight=67
letting values=[22, 50, 42, 35, 14, 13, 22, 48, 19, 6, 46, 22, 51, 29, 3, 20, 37, 15, 60, 32, 2, 18, 34, 24, 26, 19, 49, 36, 21, 19, 20, 50, 54, 25, 32, 43, 7, 48, 41, 41, 35, 55, 4, 9, 52, 23, 2, 1, 58, 9, 59, 9, 18, 12, 5, 32, 60, 31, 49, 2, 10]
letting weights=[10, 20, 5, 15, 15, 9, 10, 6, 3, 11, 8, 20, 5, 5, 4, 14, 17, 3, 14, 2, 12, 14, 13, 16, 16, 20, 4, 4, 3, 1, 14, 15, 7, 9, 6, 16, 20, 3, 1, 13, 3, 2, 3, 8, 13, 11, 20, 3, 13, 20, 14, 3, 16, 11, 12, 3, 15, 13, 3, 4, 19]
